id: 1183
name: neos-933638
group: miplib2010
method: 1

Gurobi 7.0.2 (linux64, Matlab) logging started Fri Apr 20 03:26:32 2018


Gurobi 7.0.2 (linux64) logging started Fri Apr 20 03:26:32 2018

Optimize a model with 13658 rows, 32417 columns and 187173 nonzeros
Coefficient statistics:
  Matrix range     [1e+00, 1e+00]
  Objective range  [1e+00, 1e+03]
  Bounds range     [1e+00, 1e+00]
  RHS range        [1e+00, 1e+01]
Presolve removed 4016 rows and 23530 columns
Presolve time: 0.02s
Presolved: 9642 rows, 8887 columns, 54484 nonzeros

Iteration    Objective       Primal Inf.    Dual Inf.      Time
       0   -2.4920000e+03   1.709400e+04   0.000000e+00      0s
   15376    2.7600061e+02   2.652546e+00   0.000000e+00      5s
   15474    2.7600000e+02   0.000000e+00   0.000000e+00      5s

Solved in 15474 iterations and 5.11 seconds
Optimal objective  2.760000000e+02
status: OPTIMAL
